 867933
 295005
 371737
 236899
 282175
 232511
 892512
 150651
 336524
 529370
 614995
 671029
 279362
 182537
 612893
 691285
 723235
 554937
  32544
 323538
  59728
 551299
 211067
 860932
 882864
 230519
 561958
 437427
 221757
 377591
 367098
 153006
 121417
 607752
 846546
